DIMACS.wcnf
h 2 1 0
h 3 2 0
h 4 2 0
h 4 3 0
h 5 1 0
h 5 2 0
h 6 4 0
h 7 3 0
h 7 5 0
h 8 1 0
h 8 2 0
h 9 7 0
h 10 2 0
h 10 3 0
h 10 4 0
h 10 5 0
h 10 9 0
1 -1 0
1 -2 0
1 -3 0
1 -4 0
1 -5 0
1 -6 0
1 -7 0
1 -8 0
1 -9 0
1 -10 0
