dimacs.wcnf
p wcnf 4 3 2147483647
2147483647 1 2 0
2147483647 1 3 0
2147483647 2 3 0
1 -1 0
1 -2 0
1 -3 0
